========================================================== 
File name: C:\DEGR\assets\definitions\MSRCPSP_noconst\1000_40_0_0.def
Creation date: Sat May 13 10:38:46 CEST 2023
Website: http://imopse.ii.pwr.edu.pl/ 
Reference: 
Myszkowski P. B., Skowronski M. E., Olech L., Oslizlo K., 
Hybrid Ant Colony Optimization in solving Multi-Skill Resource-Constrained Project Scheduling Problem, 
Soft Computing, DOI: DOI 10.1007/s00500-014-1455-x 
========================================================== 
General characteristics: 
Tasks: 1000
Resources: 40
Precedence relations: 0
Number of skill types: 1
========================================================== 
ResourceID 	 Salary 	 Skills 
1	 	 	52.3	 	 Q0: 0 	 
2	 	 	96.7	 	 Q0: 0 	 
3	 	 	71.5	 	 Q0: 0 	 
4	 	 	88.9	 	 Q0: 0 	 
5	 	 	25.2	 	 Q0: 0 	 
6	 	 	83.1	 	 Q0: 0 	 
7	 	 	51.9	 	 Q0: 0 	 
8	 	 	50.7	 	 Q0: 0 	 
9	 	 	61.6	 	 Q0: 0 	 
10	 	 	86.5	 	 Q0: 0 	 
11	 	 	55.8	 	 Q0: 0 	 
12	 	 	10.1	 	 Q0: 0 	 
13	 	 	65.2	 	 Q0: 0 	 
14	 	 	59.8	 	 Q0: 0 	 
15	 	 	34.6	 	 Q0: 0 	 
16	 	 	16.5	 	 Q0: 0 	 
17	 	 	72.3	 	 Q0: 0 	 
18	 	 	34.5	 	 Q0: 0 	 
19	 	 	64.9	 	 Q0: 0 	 
20	 	 	50.4	 	 Q0: 0 	 
21	 	 	55.9	 	 Q0: 0 	 
22	 	 	12.5	 	 Q0: 0 	 
23	 	 	82.5	 	 Q0: 0 	 
24	 	 	69.1	 	 Q0: 0 	 
25	 	 	84.7	 	 Q0: 0 	 
26	 	 	65.6	 	 Q0: 0 	 
27	 	 	18.1	 	 Q0: 0 	 
28	 	 	61.6	 	 Q0: 0 	 
29	 	 	33.8	 	 Q0: 0 	 
30	 	 	69.8	 	 Q0: 0 	 
31	 	 	79.3	 	 Q0: 0 	 
32	 	 	90.7	 	 Q0: 0 	 
33	 	 	44.5	 	 Q0: 0 	 
34	 	 	55.1	 	 Q0: 0 	 
35	 	 	52.7	 	 Q0: 0 	 
36	 	 	53.1	 	 Q0: 0 	 
37	 	 	78.1	 	 Q0: 0 	 
38	 	 	12.9	 	 Q0: 0 	 
39	 	 	26.6	 	 Q0: 0 	 
40	 	 	81.8	 	 Q0: 0 	 
========================================================== 
TaskID 	 Duration 	 Skill 	 Predecessor IDs 
1	 	 	14	 Q0: 0	 	
2	 	 	28	 Q0: 0	 	
3	 	 	24	 Q0: 0	 	
4	 	 	16	 Q0: 0	 	
5	 	 	11	 Q0: 0	 	
6	 	 	28	 Q0: 0	 	
7	 	 	12	 Q0: 0	 	
8	 	 	37	 Q0: 0	 	
9	 	 	20	 Q0: 0	 	
10	 	 	17	 Q0: 0	 	
11	 	 	15	 Q0: 0	 	
12	 	 	29	 Q0: 0	 	
13	 	 	17	 Q0: 0	 	
14	 	 	9	 Q0: 0	 	
15	 	 	33	 Q0: 0	 	
16	 	 	20	 Q0: 0	 	
17	 	 	24	 Q0: 0	 	
18	 	 	13	 Q0: 0	 	
19	 	 	29	 Q0: 0	 	
20	 	 	38	 Q0: 0	 	
21	 	 	39	 Q0: 0	 	
22	 	 	27	 Q0: 0	 	
23	 	 	19	 Q0: 0	 	
24	 	 	31	 Q0: 0	 	
25	 	 	34	 Q0: 0	 	
26	 	 	17	 Q0: 0	 	
27	 	 	36	 Q0: 0	 	
28	 	 	25	 Q0: 0	 	
29	 	 	9	 Q0: 0	 	
30	 	 	34	 Q0: 0	 	
31	 	 	35	 Q0: 0	 	
32	 	 	15	 Q0: 0	 	
33	 	 	12	 Q0: 0	 	
34	 	 	18	 Q0: 0	 	
35	 	 	17	 Q0: 0	 	
36	 	 	30	 Q0: 0	 	
37	 	 	21	 Q0: 0	 	
38	 	 	17	 Q0: 0	 	
39	 	 	17	 Q0: 0	 	
40	 	 	35	 Q0: 0	 	
41	 	 	14	 Q0: 0	 	
42	 	 	9	 Q0: 0	 	
43	 	 	27	 Q0: 0	 	
44	 	 	39	 Q0: 0	 	
45	 	 	33	 Q0: 0	 	
46	 	 	27	 Q0: 0	 	
47	 	 	31	 Q0: 0	 	
48	 	 	28	 Q0: 0	 	
49	 	 	30	 Q0: 0	 	
50	 	 	38	 Q0: 0	 	
51	 	 	40	 Q0: 0	 	
52	 	 	23	 Q0: 0	 	
53	 	 	31	 Q0: 0	 	
54	 	 	20	 Q0: 0	 	
55	 	 	32	 Q0: 0	 	
56	 	 	14	 Q0: 0	 	
57	 	 	12	 Q0: 0	 	
58	 	 	40	 Q0: 0	 	
59	 	 	23	 Q0: 0	 	
60	 	 	18	 Q0: 0	 	
61	 	 	40	 Q0: 0	 	
62	 	 	19	 Q0: 0	 	
63	 	 	38	 Q0: 0	 	
64	 	 	23	 Q0: 0	 	
65	 	 	40	 Q0: 0	 	
66	 	 	11	 Q0: 0	 	
67	 	 	13	 Q0: 0	 	
68	 	 	33	 Q0: 0	 	
69	 	 	13	 Q0: 0	 	
70	 	 	16	 Q0: 0	 	
71	 	 	19	 Q0: 0	 	
72	 	 	9	 Q0: 0	 	
73	 	 	25	 Q0: 0	 	
74	 	 	9	 Q0: 0	 	
75	 	 	29	 Q0: 0	 	
76	 	 	20	 Q0: 0	 	
77	 	 	27	 Q0: 0	 	
78	 	 	24	 Q0: 0	 	
79	 	 	17	 Q0: 0	 	
80	 	 	38	 Q0: 0	 	
81	 	 	21	 Q0: 0	 	
82	 	 	40	 Q0: 0	 	
83	 	 	29	 Q0: 0	 	
84	 	 	12	 Q0: 0	 	
85	 	 	25	 Q0: 0	 	
86	 	 	31	 Q0: 0	 	
87	 	 	16	 Q0: 0	 	
88	 	 	18	 Q0: 0	 	
89	 	 	37	 Q0: 0	 	
90	 	 	38	 Q0: 0	 	
91	 	 	19	 Q0: 0	 	
92	 	 	12	 Q0: 0	 	
93	 	 	28	 Q0: 0	 	
94	 	 	23	 Q0: 0	 	
95	 	 	15	 Q0: 0	 	
96	 	 	28	 Q0: 0	 	
97	 	 	24	 Q0: 0	 	
98	 	 	34	 Q0: 0	 	
99	 	 	18	 Q0: 0	 	
100	 	 	29	 Q0: 0	 	
101	 	 	15	 Q0: 0	 	
102	 	 	34	 Q0: 0	 	
103	 	 	38	 Q0: 0	 	
104	 	 	13	 Q0: 0	 	
105	 	 	38	 Q0: 0	 	
106	 	 	23	 Q0: 0	 	
107	 	 	38	 Q0: 0	 	
108	 	 	29	 Q0: 0	 	
109	 	 	25	 Q0: 0	 	
110	 	 	33	 Q0: 0	 	
111	 	 	15	 Q0: 0	 	
112	 	 	16	 Q0: 0	 	
113	 	 	40	 Q0: 0	 	
114	 	 	40	 Q0: 0	 	
115	 	 	31	 Q0: 0	 	
116	 	 	28	 Q0: 0	 	
117	 	 	11	 Q0: 0	 	
118	 	 	29	 Q0: 0	 	
119	 	 	26	 Q0: 0	 	
120	 	 	33	 Q0: 0	 	
121	 	 	37	 Q0: 0	 	
122	 	 	34	 Q0: 0	 	
123	 	 	25	 Q0: 0	 	
124	 	 	16	 Q0: 0	 	
125	 	 	21	 Q0: 0	 	
126	 	 	21	 Q0: 0	 	
127	 	 	25	 Q0: 0	 	
128	 	 	38	 Q0: 0	 	
129	 	 	36	 Q0: 0	 	
130	 	 	19	 Q0: 0	 	
131	 	 	19	 Q0: 0	 	
132	 	 	30	 Q0: 0	 	
133	 	 	27	 Q0: 0	 	
134	 	 	22	 Q0: 0	 	
135	 	 	15	 Q0: 0	 	
136	 	 	27	 Q0: 0	 	
137	 	 	13	 Q0: 0	 	
138	 	 	21	 Q0: 0	 	
139	 	 	30	 Q0: 0	 	
140	 	 	30	 Q0: 0	 	
141	 	 	15	 Q0: 0	 	
142	 	 	27	 Q0: 0	 	
143	 	 	26	 Q0: 0	 	
144	 	 	27	 Q0: 0	 	
145	 	 	31	 Q0: 0	 	
146	 	 	11	 Q0: 0	 	
147	 	 	19	 Q0: 0	 	
148	 	 	16	 Q0: 0	 	
149	 	 	14	 Q0: 0	 	
150	 	 	29	 Q0: 0	 	
151	 	 	39	 Q0: 0	 	
152	 	 	28	 Q0: 0	 	
153	 	 	22	 Q0: 0	 	
154	 	 	27	 Q0: 0	 	
155	 	 	40	 Q0: 0	 	
156	 	 	27	 Q0: 0	 	
157	 	 	33	 Q0: 0	 	
158	 	 	32	 Q0: 0	 	
159	 	 	31	 Q0: 0	 	
160	 	 	27	 Q0: 0	 	
161	 	 	23	 Q0: 0	 	
162	 	 	17	 Q0: 0	 	
163	 	 	25	 Q0: 0	 	
164	 	 	28	 Q0: 0	 	
165	 	 	25	 Q0: 0	 	
166	 	 	9	 Q0: 0	 	
167	 	 	34	 Q0: 0	 	
168	 	 	15	 Q0: 0	 	
169	 	 	30	 Q0: 0	 	
170	 	 	13	 Q0: 0	 	
171	 	 	20	 Q0: 0	 	
172	 	 	12	 Q0: 0	 	
173	 	 	26	 Q0: 0	 	
174	 	 	40	 Q0: 0	 	
175	 	 	38	 Q0: 0	 	
176	 	 	16	 Q0: 0	 	
177	 	 	17	 Q0: 0	 	
178	 	 	12	 Q0: 0	 	
179	 	 	9	 Q0: 0	 	
180	 	 	11	 Q0: 0	 	
181	 	 	15	 Q0: 0	 	
182	 	 	9	 Q0: 0	 	
183	 	 	20	 Q0: 0	 	
184	 	 	12	 Q0: 0	 	
185	 	 	13	 Q0: 0	 	
186	 	 	40	 Q0: 0	 	
187	 	 	39	 Q0: 0	 	
188	 	 	24	 Q0: 0	 	
189	 	 	29	 Q0: 0	 	
190	 	 	39	 Q0: 0	 	
191	 	 	32	 Q0: 0	 	
192	 	 	17	 Q0: 0	 	
193	 	 	32	 Q0: 0	 	
194	 	 	11	 Q0: 0	 	
195	 	 	13	 Q0: 0	 	
196	 	 	39	 Q0: 0	 	
197	 	 	15	 Q0: 0	 	
198	 	 	11	 Q0: 0	 	
199	 	 	21	 Q0: 0	 	
200	 	 	29	 Q0: 0	 	
201	 	 	11	 Q0: 0	 	
202	 	 	33	 Q0: 0	 	
203	 	 	36	 Q0: 0	 	
204	 	 	16	 Q0: 0	 	
205	 	 	14	 Q0: 0	 	
206	 	 	33	 Q0: 0	 	
207	 	 	37	 Q0: 0	 	
208	 	 	27	 Q0: 0	 	
209	 	 	16	 Q0: 0	 	
210	 	 	28	 Q0: 0	 	
211	 	 	40	 Q0: 0	 	
212	 	 	24	 Q0: 0	 	
213	 	 	35	 Q0: 0	 	
214	 	 	16	 Q0: 0	 	
215	 	 	11	 Q0: 0	 	
216	 	 	17	 Q0: 0	 	
217	 	 	14	 Q0: 0	 	
218	 	 	19	 Q0: 0	 	
219	 	 	24	 Q0: 0	 	
220	 	 	35	 Q0: 0	 	
221	 	 	11	 Q0: 0	 	
222	 	 	30	 Q0: 0	 	
223	 	 	24	 Q0: 0	 	
224	 	 	35	 Q0: 0	 	
225	 	 	29	 Q0: 0	 	
226	 	 	25	 Q0: 0	 	
227	 	 	13	 Q0: 0	 	
228	 	 	28	 Q0: 0	 	
229	 	 	22	 Q0: 0	 	
230	 	 	25	 Q0: 0	 	
231	 	 	18	 Q0: 0	 	
232	 	 	25	 Q0: 0	 	
233	 	 	11	 Q0: 0	 	
234	 	 	17	 Q0: 0	 	
235	 	 	22	 Q0: 0	 	
236	 	 	17	 Q0: 0	 	
237	 	 	19	 Q0: 0	 	
238	 	 	30	 Q0: 0	 	
239	 	 	34	 Q0: 0	 	
240	 	 	11	 Q0: 0	 	
241	 	 	16	 Q0: 0	 	
242	 	 	19	 Q0: 0	 	
243	 	 	11	 Q0: 0	 	
244	 	 	33	 Q0: 0	 	
245	 	 	31	 Q0: 0	 	
246	 	 	34	 Q0: 0	 	
247	 	 	22	 Q0: 0	 	
248	 	 	12	 Q0: 0	 	
249	 	 	34	 Q0: 0	 	
250	 	 	23	 Q0: 0	 	
251	 	 	19	 Q0: 0	 	
252	 	 	14	 Q0: 0	 	
253	 	 	19	 Q0: 0	 	
254	 	 	36	 Q0: 0	 	
255	 	 	24	 Q0: 0	 	
256	 	 	26	 Q0: 0	 	
257	 	 	39	 Q0: 0	 	
258	 	 	10	 Q0: 0	 	
259	 	 	39	 Q0: 0	 	
260	 	 	27	 Q0: 0	 	
261	 	 	29	 Q0: 0	 	
262	 	 	20	 Q0: 0	 	
263	 	 	19	 Q0: 0	 	
264	 	 	18	 Q0: 0	 	
265	 	 	17	 Q0: 0	 	
266	 	 	24	 Q0: 0	 	
267	 	 	17	 Q0: 0	 	
268	 	 	28	 Q0: 0	 	
269	 	 	39	 Q0: 0	 	
270	 	 	36	 Q0: 0	 	
271	 	 	29	 Q0: 0	 	
272	 	 	21	 Q0: 0	 	
273	 	 	30	 Q0: 0	 	
274	 	 	8	 Q0: 0	 	
275	 	 	30	 Q0: 0	 	
276	 	 	16	 Q0: 0	 	
277	 	 	36	 Q0: 0	 	
278	 	 	11	 Q0: 0	 	
279	 	 	34	 Q0: 0	 	
280	 	 	28	 Q0: 0	 	
281	 	 	35	 Q0: 0	 	
282	 	 	11	 Q0: 0	 	
283	 	 	37	 Q0: 0	 	
284	 	 	23	 Q0: 0	 	
285	 	 	36	 Q0: 0	 	
286	 	 	26	 Q0: 0	 	
287	 	 	9	 Q0: 0	 	
288	 	 	20	 Q0: 0	 	
289	 	 	11	 Q0: 0	 	
290	 	 	37	 Q0: 0	 	
291	 	 	30	 Q0: 0	 	
292	 	 	16	 Q0: 0	 	
293	 	 	13	 Q0: 0	 	
294	 	 	10	 Q0: 0	 	
295	 	 	12	 Q0: 0	 	
296	 	 	37	 Q0: 0	 	
297	 	 	32	 Q0: 0	 	
298	 	 	27	 Q0: 0	 	
299	 	 	11	 Q0: 0	 	
300	 	 	29	 Q0: 0	 	
301	 	 	10	 Q0: 0	 	
302	 	 	24	 Q0: 0	 	
303	 	 	19	 Q0: 0	 	
304	 	 	34	 Q0: 0	 	
305	 	 	23	 Q0: 0	 	
306	 	 	17	 Q0: 0	 	
307	 	 	37	 Q0: 0	 	
308	 	 	21	 Q0: 0	 	
309	 	 	37	 Q0: 0	 	
310	 	 	35	 Q0: 0	 	
311	 	 	10	 Q0: 0	 	
312	 	 	26	 Q0: 0	 	
313	 	 	31	 Q0: 0	 	
314	 	 	17	 Q0: 0	 	
315	 	 	29	 Q0: 0	 	
316	 	 	32	 Q0: 0	 	
317	 	 	40	 Q0: 0	 	
318	 	 	20	 Q0: 0	 	
319	 	 	26	 Q0: 0	 	
320	 	 	20	 Q0: 0	 	
321	 	 	9	 Q0: 0	 	
322	 	 	38	 Q0: 0	 	
323	 	 	22	 Q0: 0	 	
324	 	 	27	 Q0: 0	 	
325	 	 	33	 Q0: 0	 	
326	 	 	27	 Q0: 0	 	
327	 	 	18	 Q0: 0	 	
328	 	 	12	 Q0: 0	 	
329	 	 	19	 Q0: 0	 	
330	 	 	32	 Q0: 0	 	
331	 	 	19	 Q0: 0	 	
332	 	 	27	 Q0: 0	 	
333	 	 	12	 Q0: 0	 	
334	 	 	35	 Q0: 0	 	
335	 	 	16	 Q0: 0	 	
336	 	 	9	 Q0: 0	 	
337	 	 	16	 Q0: 0	 	
338	 	 	36	 Q0: 0	 	
339	 	 	17	 Q0: 0	 	
340	 	 	22	 Q0: 0	 	
341	 	 	30	 Q0: 0	 	
342	 	 	20	 Q0: 0	 	
343	 	 	38	 Q0: 0	 	
344	 	 	39	 Q0: 0	 	
345	 	 	29	 Q0: 0	 	
346	 	 	16	 Q0: 0	 	
347	 	 	32	 Q0: 0	 	
348	 	 	15	 Q0: 0	 	
349	 	 	25	 Q0: 0	 	
350	 	 	35	 Q0: 0	 	
351	 	 	14	 Q0: 0	 	
352	 	 	35	 Q0: 0	 	
353	 	 	29	 Q0: 0	 	
354	 	 	12	 Q0: 0	 	
355	 	 	9	 Q0: 0	 	
356	 	 	37	 Q0: 0	 	
357	 	 	25	 Q0: 0	 	
358	 	 	20	 Q0: 0	 	
359	 	 	22	 Q0: 0	 	
360	 	 	32	 Q0: 0	 	
361	 	 	31	 Q0: 0	 	
362	 	 	9	 Q0: 0	 	
363	 	 	37	 Q0: 0	 	
364	 	 	30	 Q0: 0	 	
365	 	 	15	 Q0: 0	 	
366	 	 	16	 Q0: 0	 	
367	 	 	33	 Q0: 0	 	
368	 	 	10	 Q0: 0	 	
369	 	 	31	 Q0: 0	 	
370	 	 	12	 Q0: 0	 	
371	 	 	20	 Q0: 0	 	
372	 	 	37	 Q0: 0	 	
373	 	 	19	 Q0: 0	 	
374	 	 	25	 Q0: 0	 	
375	 	 	36	 Q0: 0	 	
376	 	 	22	 Q0: 0	 	
377	 	 	9	 Q0: 0	 	
378	 	 	22	 Q0: 0	 	
379	 	 	27	 Q0: 0	 	
380	 	 	23	 Q0: 0	 	
381	 	 	30	 Q0: 0	 	
382	 	 	29	 Q0: 0	 	
383	 	 	29	 Q0: 0	 	
384	 	 	11	 Q0: 0	 	
385	 	 	12	 Q0: 0	 	
386	 	 	11	 Q0: 0	 	
387	 	 	32	 Q0: 0	 	
388	 	 	27	 Q0: 0	 	
389	 	 	26	 Q0: 0	 	
390	 	 	38	 Q0: 0	 	
391	 	 	28	 Q0: 0	 	
392	 	 	20	 Q0: 0	 	
393	 	 	12	 Q0: 0	 	
394	 	 	24	 Q0: 0	 	
395	 	 	12	 Q0: 0	 	
396	 	 	26	 Q0: 0	 	
397	 	 	35	 Q0: 0	 	
398	 	 	33	 Q0: 0	 	
399	 	 	22	 Q0: 0	 	
400	 	 	23	 Q0: 0	 	
401	 	 	15	 Q0: 0	 	
402	 	 	29	 Q0: 0	 	
403	 	 	32	 Q0: 0	 	
404	 	 	34	 Q0: 0	 	
405	 	 	16	 Q0: 0	 	
406	 	 	27	 Q0: 0	 	
407	 	 	11	 Q0: 0	 	
408	 	 	9	 Q0: 0	 	
409	 	 	11	 Q0: 0	 	
410	 	 	31	 Q0: 0	 	
411	 	 	14	 Q0: 0	 	
412	 	 	12	 Q0: 0	 	
413	 	 	19	 Q0: 0	 	
414	 	 	11	 Q0: 0	 	
415	 	 	19	 Q0: 0	 	
416	 	 	39	 Q0: 0	 	
417	 	 	31	 Q0: 0	 	
418	 	 	38	 Q0: 0	 	
419	 	 	27	 Q0: 0	 	
420	 	 	15	 Q0: 0	 	
421	 	 	28	 Q0: 0	 	
422	 	 	12	 Q0: 0	 	
423	 	 	38	 Q0: 0	 	
424	 	 	18	 Q0: 0	 	
425	 	 	10	 Q0: 0	 	
426	 	 	30	 Q0: 0	 	
427	 	 	39	 Q0: 0	 	
428	 	 	39	 Q0: 0	 	
429	 	 	20	 Q0: 0	 	
430	 	 	32	 Q0: 0	 	
431	 	 	11	 Q0: 0	 	
432	 	 	31	 Q0: 0	 	
433	 	 	29	 Q0: 0	 	
434	 	 	21	 Q0: 0	 	
435	 	 	21	 Q0: 0	 	
436	 	 	31	 Q0: 0	 	
437	 	 	26	 Q0: 0	 	
438	 	 	27	 Q0: 0	 	
439	 	 	32	 Q0: 0	 	
440	 	 	14	 Q0: 0	 	
441	 	 	35	 Q0: 0	 	
442	 	 	38	 Q0: 0	 	
443	 	 	19	 Q0: 0	 	
444	 	 	26	 Q0: 0	 	
445	 	 	25	 Q0: 0	 	
446	 	 	38	 Q0: 0	 	
447	 	 	29	 Q0: 0	 	
448	 	 	17	 Q0: 0	 	
449	 	 	31	 Q0: 0	 	
450	 	 	23	 Q0: 0	 	
451	 	 	26	 Q0: 0	 	
452	 	 	10	 Q0: 0	 	
453	 	 	21	 Q0: 0	 	
454	 	 	22	 Q0: 0	 	
455	 	 	28	 Q0: 0	 	
456	 	 	25	 Q0: 0	 	
457	 	 	21	 Q0: 0	 	
458	 	 	15	 Q0: 0	 	
459	 	 	21	 Q0: 0	 	
460	 	 	32	 Q0: 0	 	
461	 	 	27	 Q0: 0	 	
462	 	 	30	 Q0: 0	 	
463	 	 	17	 Q0: 0	 	
464	 	 	39	 Q0: 0	 	
465	 	 	26	 Q0: 0	 	
466	 	 	32	 Q0: 0	 	
467	 	 	9	 Q0: 0	 	
468	 	 	18	 Q0: 0	 	
469	 	 	32	 Q0: 0	 	
470	 	 	28	 Q0: 0	 	
471	 	 	28	 Q0: 0	 	
472	 	 	12	 Q0: 0	 	
473	 	 	19	 Q0: 0	 	
474	 	 	29	 Q0: 0	 	
475	 	 	12	 Q0: 0	 	
476	 	 	9	 Q0: 0	 	
477	 	 	9	 Q0: 0	 	
478	 	 	27	 Q0: 0	 	
479	 	 	25	 Q0: 0	 	
480	 	 	33	 Q0: 0	 	
481	 	 	32	 Q0: 0	 	
482	 	 	15	 Q0: 0	 	
483	 	 	19	 Q0: 0	 	
484	 	 	21	 Q0: 0	 	
485	 	 	20	 Q0: 0	 	
486	 	 	29	 Q0: 0	 	
487	 	 	38	 Q0: 0	 	
488	 	 	16	 Q0: 0	 	
489	 	 	28	 Q0: 0	 	
490	 	 	31	 Q0: 0	 	
491	 	 	14	 Q0: 0	 	
492	 	 	33	 Q0: 0	 	
493	 	 	25	 Q0: 0	 	
494	 	 	26	 Q0: 0	 	
495	 	 	14	 Q0: 0	 	
496	 	 	40	 Q0: 0	 	
497	 	 	24	 Q0: 0	 	
498	 	 	39	 Q0: 0	 	
499	 	 	40	 Q0: 0	 	
500	 	 	12	 Q0: 0	 	
501	 	 	25	 Q0: 0	 	
502	 	 	36	 Q0: 0	 	
503	 	 	36	 Q0: 0	 	
504	 	 	15	 Q0: 0	 	
505	 	 	37	 Q0: 0	 	
506	 	 	18	 Q0: 0	 	
507	 	 	37	 Q0: 0	 	
508	 	 	34	 Q0: 0	 	
509	 	 	21	 Q0: 0	 	
510	 	 	15	 Q0: 0	 	
511	 	 	23	 Q0: 0	 	
512	 	 	11	 Q0: 0	 	
513	 	 	13	 Q0: 0	 	
514	 	 	23	 Q0: 0	 	
515	 	 	14	 Q0: 0	 	
516	 	 	30	 Q0: 0	 	
517	 	 	36	 Q0: 0	 	
518	 	 	32	 Q0: 0	 	
519	 	 	36	 Q0: 0	 	
520	 	 	22	 Q0: 0	 	
521	 	 	20	 Q0: 0	 	
522	 	 	36	 Q0: 0	 	
523	 	 	30	 Q0: 0	 	
524	 	 	30	 Q0: 0	 	
525	 	 	28	 Q0: 0	 	
526	 	 	15	 Q0: 0	 	
527	 	 	17	 Q0: 0	 	
528	 	 	21	 Q0: 0	 	
529	 	 	27	 Q0: 0	 	
530	 	 	9	 Q0: 0	 	
531	 	 	14	 Q0: 0	 	
532	 	 	23	 Q0: 0	 	
533	 	 	11	 Q0: 0	 	
534	 	 	20	 Q0: 0	 	
535	 	 	40	 Q0: 0	 	
536	 	 	32	 Q0: 0	 	
537	 	 	9	 Q0: 0	 	
538	 	 	18	 Q0: 0	 	
539	 	 	14	 Q0: 0	 	
540	 	 	36	 Q0: 0	 	
541	 	 	14	 Q0: 0	 	
542	 	 	22	 Q0: 0	 	
543	 	 	22	 Q0: 0	 	
544	 	 	12	 Q0: 0	 	
545	 	 	37	 Q0: 0	 	
546	 	 	29	 Q0: 0	 	
547	 	 	40	 Q0: 0	 	
548	 	 	22	 Q0: 0	 	
549	 	 	15	 Q0: 0	 	
550	 	 	37	 Q0: 0	 	
551	 	 	24	 Q0: 0	 	
552	 	 	33	 Q0: 0	 	
553	 	 	20	 Q0: 0	 	
554	 	 	9	 Q0: 0	 	
555	 	 	14	 Q0: 0	 	
556	 	 	17	 Q0: 0	 	
557	 	 	37	 Q0: 0	 	
558	 	 	39	 Q0: 0	 	
559	 	 	37	 Q0: 0	 	
560	 	 	40	 Q0: 0	 	
561	 	 	23	 Q0: 0	 	
562	 	 	26	 Q0: 0	 	
563	 	 	20	 Q0: 0	 	
564	 	 	31	 Q0: 0	 	
565	 	 	20	 Q0: 0	 	
566	 	 	19	 Q0: 0	 	
567	 	 	11	 Q0: 0	 	
568	 	 	9	 Q0: 0	 	
569	 	 	10	 Q0: 0	 	
570	 	 	32	 Q0: 0	 	
571	 	 	12	 Q0: 0	 	
572	 	 	28	 Q0: 0	 	
573	 	 	20	 Q0: 0	 	
574	 	 	10	 Q0: 0	 	
575	 	 	19	 Q0: 0	 	
576	 	 	25	 Q0: 0	 	
577	 	 	18	 Q0: 0	 	
578	 	 	32	 Q0: 0	 	
579	 	 	30	 Q0: 0	 	
580	 	 	30	 Q0: 0	 	
581	 	 	19	 Q0: 0	 	
582	 	 	9	 Q0: 0	 	
583	 	 	13	 Q0: 0	 	
584	 	 	33	 Q0: 0	 	
585	 	 	18	 Q0: 0	 	
586	 	 	28	 Q0: 0	 	
587	 	 	17	 Q0: 0	 	
588	 	 	26	 Q0: 0	 	
589	 	 	30	 Q0: 0	 	
590	 	 	30	 Q0: 0	 	
591	 	 	22	 Q0: 0	 	
592	 	 	27	 Q0: 0	 	
593	 	 	21	 Q0: 0	 	
594	 	 	40	 Q0: 0	 	
595	 	 	28	 Q0: 0	 	
596	 	 	30	 Q0: 0	 	
597	 	 	31	 Q0: 0	 	
598	 	 	30	 Q0: 0	 	
599	 	 	25	 Q0: 0	 	
600	 	 	28	 Q0: 0	 	
601	 	 	28	 Q0: 0	 	
602	 	 	39	 Q0: 0	 	
603	 	 	37	 Q0: 0	 	
604	 	 	40	 Q0: 0	 	
605	 	 	10	 Q0: 0	 	
606	 	 	15	 Q0: 0	 	
607	 	 	26	 Q0: 0	 	
608	 	 	32	 Q0: 0	 	
609	 	 	27	 Q0: 0	 	
610	 	 	26	 Q0: 0	 	
611	 	 	38	 Q0: 0	 	
612	 	 	28	 Q0: 0	 	
613	 	 	26	 Q0: 0	 	
614	 	 	14	 Q0: 0	 	
615	 	 	21	 Q0: 0	 	
616	 	 	12	 Q0: 0	 	
617	 	 	16	 Q0: 0	 	
618	 	 	16	 Q0: 0	 	
619	 	 	27	 Q0: 0	 	
620	 	 	36	 Q0: 0	 	
621	 	 	20	 Q0: 0	 	
622	 	 	33	 Q0: 0	 	
623	 	 	15	 Q0: 0	 	
624	 	 	37	 Q0: 0	 	
625	 	 	25	 Q0: 0	 	
626	 	 	40	 Q0: 0	 	
627	 	 	11	 Q0: 0	 	
628	 	 	25	 Q0: 0	 	
629	 	 	34	 Q0: 0	 	
630	 	 	31	 Q0: 0	 	
631	 	 	30	 Q0: 0	 	
632	 	 	33	 Q0: 0	 	
633	 	 	36	 Q0: 0	 	
634	 	 	33	 Q0: 0	 	
635	 	 	32	 Q0: 0	 	
636	 	 	29	 Q0: 0	 	
637	 	 	23	 Q0: 0	 	
638	 	 	26	 Q0: 0	 	
639	 	 	35	 Q0: 0	 	
640	 	 	34	 Q0: 0	 	
641	 	 	10	 Q0: 0	 	
642	 	 	13	 Q0: 0	 	
643	 	 	37	 Q0: 0	 	
644	 	 	16	 Q0: 0	 	
645	 	 	23	 Q0: 0	 	
646	 	 	31	 Q0: 0	 	
647	 	 	28	 Q0: 0	 	
648	 	 	19	 Q0: 0	 	
649	 	 	12	 Q0: 0	 	
650	 	 	30	 Q0: 0	 	
651	 	 	27	 Q0: 0	 	
652	 	 	19	 Q0: 0	 	
653	 	 	25	 Q0: 0	 	
654	 	 	34	 Q0: 0	 	
655	 	 	21	 Q0: 0	 	
656	 	 	31	 Q0: 0	 	
657	 	 	28	 Q0: 0	 	
658	 	 	19	 Q0: 0	 	
659	 	 	9	 Q0: 0	 	
660	 	 	27	 Q0: 0	 	
661	 	 	36	 Q0: 0	 	
662	 	 	15	 Q0: 0	 	
663	 	 	35	 Q0: 0	 	
664	 	 	17	 Q0: 0	 	
665	 	 	15	 Q0: 0	 	
666	 	 	28	 Q0: 0	 	
667	 	 	34	 Q0: 0	 	
668	 	 	26	 Q0: 0	 	
669	 	 	11	 Q0: 0	 	
670	 	 	38	 Q0: 0	 	
671	 	 	18	 Q0: 0	 	
672	 	 	37	 Q0: 0	 	
673	 	 	12	 Q0: 0	 	
674	 	 	36	 Q0: 0	 	
675	 	 	23	 Q0: 0	 	
676	 	 	33	 Q0: 0	 	
677	 	 	20	 Q0: 0	 	
678	 	 	10	 Q0: 0	 	
679	 	 	21	 Q0: 0	 	
680	 	 	31	 Q0: 0	 	
681	 	 	26	 Q0: 0	 	
682	 	 	23	 Q0: 0	 	
683	 	 	39	 Q0: 0	 	
684	 	 	27	 Q0: 0	 	
685	 	 	14	 Q0: 0	 	
686	 	 	12	 Q0: 0	 	
687	 	 	15	 Q0: 0	 	
688	 	 	21	 Q0: 0	 	
689	 	 	36	 Q0: 0	 	
690	 	 	31	 Q0: 0	 	
691	 	 	9	 Q0: 0	 	
692	 	 	29	 Q0: 0	 	
693	 	 	37	 Q0: 0	 	
694	 	 	25	 Q0: 0	 	
695	 	 	29	 Q0: 0	 	
696	 	 	22	 Q0: 0	 	
697	 	 	17	 Q0: 0	 	
698	 	 	13	 Q0: 0	 	
699	 	 	27	 Q0: 0	 	
700	 	 	36	 Q0: 0	 	
701	 	 	14	 Q0: 0	 	
702	 	 	11	 Q0: 0	 	
703	 	 	39	 Q0: 0	 	
704	 	 	31	 Q0: 0	 	
705	 	 	40	 Q0: 0	 	
706	 	 	20	 Q0: 0	 	
707	 	 	27	 Q0: 0	 	
708	 	 	32	 Q0: 0	 	
709	 	 	32	 Q0: 0	 	
710	 	 	22	 Q0: 0	 	
711	 	 	35	 Q0: 0	 	
712	 	 	21	 Q0: 0	 	
713	 	 	38	 Q0: 0	 	
714	 	 	19	 Q0: 0	 	
715	 	 	38	 Q0: 0	 	
716	 	 	23	 Q0: 0	 	
717	 	 	24	 Q0: 0	 	
718	 	 	28	 Q0: 0	 	
719	 	 	23	 Q0: 0	 	
720	 	 	26	 Q0: 0	 	
721	 	 	39	 Q0: 0	 	
722	 	 	9	 Q0: 0	 	
723	 	 	25	 Q0: 0	 	
724	 	 	21	 Q0: 0	 	
725	 	 	24	 Q0: 0	 	
726	 	 	15	 Q0: 0	 	
727	 	 	28	 Q0: 0	 	
728	 	 	19	 Q0: 0	 	
729	 	 	9	 Q0: 0	 	
730	 	 	40	 Q0: 0	 	
731	 	 	23	 Q0: 0	 	
732	 	 	34	 Q0: 0	 	
733	 	 	22	 Q0: 0	 	
734	 	 	35	 Q0: 0	 	
735	 	 	10	 Q0: 0	 	
736	 	 	25	 Q0: 0	 	
737	 	 	16	 Q0: 0	 	
738	 	 	37	 Q0: 0	 	
739	 	 	36	 Q0: 0	 	
740	 	 	31	 Q0: 0	 	
741	 	 	39	 Q0: 0	 	
742	 	 	14	 Q0: 0	 	
743	 	 	16	 Q0: 0	 	
744	 	 	33	 Q0: 0	 	
745	 	 	30	 Q0: 0	 	
746	 	 	15	 Q0: 0	 	
747	 	 	40	 Q0: 0	 	
748	 	 	22	 Q0: 0	 	
749	 	 	24	 Q0: 0	 	
750	 	 	17	 Q0: 0	 	
751	 	 	16	 Q0: 0	 	
752	 	 	40	 Q0: 0	 	
753	 	 	25	 Q0: 0	 	
754	 	 	34	 Q0: 0	 	
755	 	 	27	 Q0: 0	 	
756	 	 	17	 Q0: 0	 	
757	 	 	27	 Q0: 0	 	
758	 	 	31	 Q0: 0	 	
759	 	 	34	 Q0: 0	 	
760	 	 	18	 Q0: 0	 	
761	 	 	14	 Q0: 0	 	
762	 	 	32	 Q0: 0	 	
763	 	 	25	 Q0: 0	 	
764	 	 	12	 Q0: 0	 	
765	 	 	40	 Q0: 0	 	
766	 	 	15	 Q0: 0	 	
767	 	 	14	 Q0: 0	 	
768	 	 	39	 Q0: 0	 	
769	 	 	39	 Q0: 0	 	
770	 	 	39	 Q0: 0	 	
771	 	 	25	 Q0: 0	 	
772	 	 	13	 Q0: 0	 	
773	 	 	20	 Q0: 0	 	
774	 	 	35	 Q0: 0	 	
775	 	 	40	 Q0: 0	 	
776	 	 	12	 Q0: 0	 	
777	 	 	32	 Q0: 0	 	
778	 	 	24	 Q0: 0	 	
779	 	 	35	 Q0: 0	 	
780	 	 	36	 Q0: 0	 	
781	 	 	15	 Q0: 0	 	
782	 	 	15	 Q0: 0	 	
783	 	 	35	 Q0: 0	 	
784	 	 	37	 Q0: 0	 	
785	 	 	31	 Q0: 0	 	
786	 	 	39	 Q0: 0	 	
787	 	 	34	 Q0: 0	 	
788	 	 	17	 Q0: 0	 	
789	 	 	29	 Q0: 0	 	
790	 	 	22	 Q0: 0	 	
791	 	 	39	 Q0: 0	 	
792	 	 	33	 Q0: 0	 	
793	 	 	39	 Q0: 0	 	
794	 	 	16	 Q0: 0	 	
795	 	 	29	 Q0: 0	 	
796	 	 	23	 Q0: 0	 	
797	 	 	29	 Q0: 0	 	
798	 	 	14	 Q0: 0	 	
799	 	 	16	 Q0: 0	 	
800	 	 	29	 Q0: 0	 	
801	 	 	33	 Q0: 0	 	
802	 	 	12	 Q0: 0	 	
803	 	 	23	 Q0: 0	 	
804	 	 	22	 Q0: 0	 	
805	 	 	22	 Q0: 0	 	
806	 	 	13	 Q0: 0	 	
807	 	 	32	 Q0: 0	 	
808	 	 	22	 Q0: 0	 	
809	 	 	27	 Q0: 0	 	
810	 	 	14	 Q0: 0	 	
811	 	 	26	 Q0: 0	 	
812	 	 	32	 Q0: 0	 	
813	 	 	40	 Q0: 0	 	
814	 	 	29	 Q0: 0	 	
815	 	 	8	 Q0: 0	 	
816	 	 	19	 Q0: 0	 	
817	 	 	10	 Q0: 0	 	
818	 	 	33	 Q0: 0	 	
819	 	 	30	 Q0: 0	 	
820	 	 	18	 Q0: 0	 	
821	 	 	13	 Q0: 0	 	
822	 	 	34	 Q0: 0	 	
823	 	 	32	 Q0: 0	 	
824	 	 	14	 Q0: 0	 	
825	 	 	40	 Q0: 0	 	
826	 	 	16	 Q0: 0	 	
827	 	 	31	 Q0: 0	 	
828	 	 	20	 Q0: 0	 	
829	 	 	13	 Q0: 0	 	
830	 	 	22	 Q0: 0	 	
831	 	 	32	 Q0: 0	 	
832	 	 	24	 Q0: 0	 	
833	 	 	29	 Q0: 0	 	
834	 	 	12	 Q0: 0	 	
835	 	 	27	 Q0: 0	 	
836	 	 	19	 Q0: 0	 	
837	 	 	22	 Q0: 0	 	
838	 	 	22	 Q0: 0	 	
839	 	 	35	 Q0: 0	 	
840	 	 	32	 Q0: 0	 	
841	 	 	40	 Q0: 0	 	
842	 	 	34	 Q0: 0	 	
843	 	 	10	 Q0: 0	 	
844	 	 	25	 Q0: 0	 	
845	 	 	10	 Q0: 0	 	
846	 	 	30	 Q0: 0	 	
847	 	 	24	 Q0: 0	 	
848	 	 	37	 Q0: 0	 	
849	 	 	25	 Q0: 0	 	
850	 	 	40	 Q0: 0	 	
851	 	 	12	 Q0: 0	 	
852	 	 	28	 Q0: 0	 	
853	 	 	12	 Q0: 0	 	
854	 	 	39	 Q0: 0	 	
855	 	 	19	 Q0: 0	 	
856	 	 	19	 Q0: 0	 	
857	 	 	19	 Q0: 0	 	
858	 	 	39	 Q0: 0	 	
859	 	 	19	 Q0: 0	 	
860	 	 	11	 Q0: 0	 	
861	 	 	15	 Q0: 0	 	
862	 	 	17	 Q0: 0	 	
863	 	 	24	 Q0: 0	 	
864	 	 	31	 Q0: 0	 	
865	 	 	15	 Q0: 0	 	
866	 	 	13	 Q0: 0	 	
867	 	 	29	 Q0: 0	 	
868	 	 	25	 Q0: 0	 	
869	 	 	14	 Q0: 0	 	
870	 	 	18	 Q0: 0	 	
871	 	 	38	 Q0: 0	 	
872	 	 	15	 Q0: 0	 	
873	 	 	25	 Q0: 0	 	
874	 	 	12	 Q0: 0	 	
875	 	 	33	 Q0: 0	 	
876	 	 	22	 Q0: 0	 	
877	 	 	21	 Q0: 0	 	
878	 	 	24	 Q0: 0	 	
879	 	 	30	 Q0: 0	 	
880	 	 	29	 Q0: 0	 	
881	 	 	40	 Q0: 0	 	
882	 	 	22	 Q0: 0	 	
883	 	 	8	 Q0: 0	 	
884	 	 	25	 Q0: 0	 	
885	 	 	11	 Q0: 0	 	
886	 	 	20	 Q0: 0	 	
887	 	 	12	 Q0: 0	 	
888	 	 	36	 Q0: 0	 	
889	 	 	14	 Q0: 0	 	
890	 	 	16	 Q0: 0	 	
891	 	 	26	 Q0: 0	 	
892	 	 	10	 Q0: 0	 	
893	 	 	12	 Q0: 0	 	
894	 	 	13	 Q0: 0	 	
895	 	 	23	 Q0: 0	 	
896	 	 	35	 Q0: 0	 	
897	 	 	15	 Q0: 0	 	
898	 	 	25	 Q0: 0	 	
899	 	 	35	 Q0: 0	 	
900	 	 	24	 Q0: 0	 	
901	 	 	38	 Q0: 0	 	
902	 	 	22	 Q0: 0	 	
903	 	 	36	 Q0: 0	 	
904	 	 	11	 Q0: 0	 	
905	 	 	10	 Q0: 0	 	
906	 	 	19	 Q0: 0	 	
907	 	 	29	 Q0: 0	 	
908	 	 	31	 Q0: 0	 	
909	 	 	34	 Q0: 0	 	
910	 	 	36	 Q0: 0	 	
911	 	 	25	 Q0: 0	 	
912	 	 	19	 Q0: 0	 	
913	 	 	34	 Q0: 0	 	
914	 	 	27	 Q0: 0	 	
915	 	 	23	 Q0: 0	 	
916	 	 	22	 Q0: 0	 	
917	 	 	12	 Q0: 0	 	
918	 	 	39	 Q0: 0	 	
919	 	 	32	 Q0: 0	 	
920	 	 	39	 Q0: 0	 	
921	 	 	18	 Q0: 0	 	
922	 	 	34	 Q0: 0	 	
923	 	 	38	 Q0: 0	 	
924	 	 	19	 Q0: 0	 	
925	 	 	14	 Q0: 0	 	
926	 	 	10	 Q0: 0	 	
927	 	 	31	 Q0: 0	 	
928	 	 	40	 Q0: 0	 	
929	 	 	16	 Q0: 0	 	
930	 	 	23	 Q0: 0	 	
931	 	 	14	 Q0: 0	 	
932	 	 	27	 Q0: 0	 	
933	 	 	32	 Q0: 0	 	
934	 	 	29	 Q0: 0	 	
935	 	 	9	 Q0: 0	 	
936	 	 	18	 Q0: 0	 	
937	 	 	25	 Q0: 0	 	
938	 	 	28	 Q0: 0	 	
939	 	 	16	 Q0: 0	 	
940	 	 	23	 Q0: 0	 	
941	 	 	15	 Q0: 0	 	
942	 	 	33	 Q0: 0	 	
943	 	 	37	 Q0: 0	 	
944	 	 	37	 Q0: 0	 	
945	 	 	27	 Q0: 0	 	
946	 	 	30	 Q0: 0	 	
947	 	 	38	 Q0: 0	 	
948	 	 	40	 Q0: 0	 	
949	 	 	22	 Q0: 0	 	
950	 	 	15	 Q0: 0	 	
951	 	 	25	 Q0: 0	 	
952	 	 	21	 Q0: 0	 	
953	 	 	10	 Q0: 0	 	
954	 	 	33	 Q0: 0	 	
955	 	 	36	 Q0: 0	 	
956	 	 	22	 Q0: 0	 	
957	 	 	13	 Q0: 0	 	
958	 	 	21	 Q0: 0	 	
959	 	 	9	 Q0: 0	 	
960	 	 	24	 Q0: 0	 	
961	 	 	34	 Q0: 0	 	
962	 	 	14	 Q0: 0	 	
963	 	 	29	 Q0: 0	 	
964	 	 	22	 Q0: 0	 	
965	 	 	9	 Q0: 0	 	
966	 	 	25	 Q0: 0	 	
967	 	 	23	 Q0: 0	 	
968	 	 	35	 Q0: 0	 	
969	 	 	8	 Q0: 0	 	
970	 	 	25	 Q0: 0	 	
971	 	 	13	 Q0: 0	 	
972	 	 	20	 Q0: 0	 	
973	 	 	18	 Q0: 0	 	
974	 	 	19	 Q0: 0	 	
975	 	 	8	 Q0: 0	 	
976	 	 	10	 Q0: 0	 	
977	 	 	22	 Q0: 0	 	
978	 	 	34	 Q0: 0	 	
979	 	 	30	 Q0: 0	 	
980	 	 	30	 Q0: 0	 	
981	 	 	32	 Q0: 0	 	
982	 	 	32	 Q0: 0	 	
983	 	 	33	 Q0: 0	 	
984	 	 	36	 Q0: 0	 	
985	 	 	27	 Q0: 0	 	
986	 	 	24	 Q0: 0	 	
987	 	 	15	 Q0: 0	 	
988	 	 	21	 Q0: 0	 	
989	 	 	34	 Q0: 0	 	
990	 	 	12	 Q0: 0	 	
991	 	 	13	 Q0: 0	 	
992	 	 	33	 Q0: 0	 	
993	 	 	22	 Q0: 0	 	
994	 	 	18	 Q0: 0	 	
995	 	 	9	 Q0: 0	 	
996	 	 	23	 Q0: 0	 	
997	 	 	14	 Q0: 0	 	
998	 	 	29	 Q0: 0	 	
999	 	 	32	 Q0: 0	 	
1000	 	 	38	 Q0: 0	 	
========================================================== 
